outputs/case_360.model.txt
forex_derivative_client_margin_trading = False
forex_derivative_not_open_or_open_less_than_6_months = False
forex_derivative_non_principal_ntd_forward = False
forex_derivative_branch_authorized = False
derivative_training_months = 0
derivative_license_held = False
structured_product_exam_passed = True
derivative_experience_months = 0
forex_derivative_professional_or_high_net_worth_clients = False
forex_derivative_ntd_exchange_rate_related = False
forex_derivative_open_more_than_6_months_non_ntd = False
forex_derivative_offshore_info_consulting_approved = True
derivative_internship_years = 0
internal_control_system_executed = True
internal_control_system_established = True
internal_handling_system_executed = True
internal_operation_system_executed = True
internal_handling_system_established = True
internal_operation_system_established = True
internal_operation_executed = True
internal_handling_established = True
forex_derivative_post_open_report = True
derivative_staff_qualified = True
forex_derivative_permit_required = True
internal_operation_ok = True
internal_handling_ok = True
structured_product_staff_qualified = False
forex_derivative_pre_open_permit = False
forex_derivative_pre_open_report = False
internal_control_executed = True
penalty = False
internal_control_established = True
internal_handling_executed = True
internal_operation_established = True
internal_control_ok = True